0 3346
1 368
2 331
3 302
4 302
5 295
6 295
7 293
8 289
9 288
10 286
11 286
12 286
13 286
14 286
15 286
16 284
17 284
18 284
19 284
20 284
21 284
22 282
23 282
24 282
25 281
26 281
27 281
28 281
29 281
30 281
31 281
32 281
33 281
34 281
35 281
36 281
37 281
38 281
39 281
40 281
41 281
42 281
43 281
44 281
45 281
46 281
47 280
48 280
49 280
50 280
51 280
52 280
53 280
54 280
55 280
56 280
57 280
58 280
59 280
60 280
61 280
62 280
63 280
64 280
65 280
66 280
67 280
68 280
69 280
70 280
71 280
72 280
73 280
74 280
75 280
76 280
77 280
78 280
79 280
80 280
81 280
82 280
83 280
84 280
85 280
86 280
87 280
88 280
89 280
90 280
91 280
92 280
93 280
94 280
95 280
96 280
97 280
98 280
99 280
100 280
101 280
102 280
103 280
104 280
105 280
106 280
107 280
108 280
109 280
110 280
111 280
112 280
113 280
114 280
115 280
116 280
117 280
118 280
119 280
120 280
121 280
122 280
123 280
124 280
125 280
126 280
127 280
128 280
129 280
130 280
131 280
132 280
133 280
134 280
135 280
136 280
137 280
138 280
139 280
140 280
141 280
142 280
143 280
144 280
145 280
146 280
147 280
148 280
149 280
150 280
151 280
152 280
153 280
154 280
155 280
156 280
157 280
158 280
159 280
160 280
161 280
162 280
163 280
164 280
165 280
166 280
167 280
168 280
169 280
170 280
171 280
172 280
173 280
174 280
175 280
176 280
177 280
178 280
179 280
180 280
181 280
182 280
183 280
184 280
185 280
186 280
187 280
188 280
189 280
190 280
191 280
192 280
193 280
194 280
195 280
196 280
197 280
198 280
199 280
200 280
201 280
202 280
203 280
204 280
205 280
206 280
207 280
208 280
209 280
210 280
211 280
212 280
213 280
214 280
215 280
216 280
217 280
218 280
219 280
220 280
221 280
222 280
223 280
224 280
225 280
226 280
227 280
228 280
229 280
230 280
231 280
232 280
233 280
234 280
235 280
236 280
237 280
238 280
239 280
240 280
241 280
242 280
243 280
244 280
245 280
246 280
247 280
248 280
249 280
250 280
251 280
252 280
253 280
254 280
255 280
256 280
257 280
258 280
259 280
260 280
261 280
262 280
263 280
264 280
265 280
266 280
267 280
268 280
269 280
270 280
271 280
272 280
273 280
274 280
275 280
276 280
277 280
278 280
279 280
280 280
281 280
282 280
283 280
284 280
285 280
286 280
287 280
288 280
289 280
290 280
291 280
292 280
293 280
294 280
295 280
296 280
297 280
298 280
299 280
300 280
301 280
302 280
303 280
304 280
305 280
306 280
307 280
308 280
309 280
310 280
311 280
312 280
313 280
314 280
315 280
316 280
317 280
318 280
319 280
320 280
321 280
322 280
323 280
324 280
325 280
326 280
327 280
328 280
329 280
330 280
331 280
332 280
333 280
334 280
335 280
336 280
337 280
338 280
339 280
340 280
341 280
342 280
343 280
344 280
345 280
346 280
347 280
348 280
349 280
350 280
351 280
352 280
353 280
354 280
355 280
356 280
357 280
358 280
359 280
360 280
361 280
362 280
363 280
364 280
365 280
366 280
367 280
368 280
369 280
370 280
371 280
372 280
373 280
374 280
375 280
376 280
377 280
378 280
379 280
380 280
381 280
382 280
383 280
384 280
385 280
386 280
387 280
388 280
389 280
390 280
391 280
392 280
393 280
394 280
395 280
396 280
397 280
398 280
399 280
400 280
401 280
402 280
403 280
404 280
405 280
406 280
407 280
408 280
409 280
410 280
411 280
412 280
413 280
414 280
415 280
416 280
417 280
418 280
419 280
420 280
421 280
422 280
423 280
424 280
425 280
426 280
427 280
428 280
429 280
430 280
431 280
432 280
433 280
434 280
435 280
436 280
437 280
438 280
439 280
440 280
441 280
442 280
443 280
444 280
445 280
446 280
447 280
448 280
449 280
450 280
451 280
452 280
453 280
454 280
455 280
456 280
457 280
458 280
459 280
460 280
461 280
462 280
463 280
464 280
465 280
466 280
467 280
468 280
469 280
470 280
471 280
472 280
473 280
474 280
475 280
476 280
477 280
478 280
479 280
480 280
481 280
482 280
483 280
484 280
485 280
486 280
487 280
488 280
489 280
490 280
491 280
492 280
493 280
494 280
495 280
496 280
497 280
498 280
499 280
500 280
501 280
502 280
503 280
504 280
505 280
506 280
507 280
508 280
509 280
510 280
511 280
512 280
513 280
514 280
515 280
516 280
517 280
518 280
519 280
520 280
521 280
522 280
523 280
524 280
525 280
526 280
527 280
528 280
529 280
530 280
531 280
532 280
533 280
534 280
535 280
536 280
537 280
538 280
539 280
540 280
541 280
542 280
543 280
544 280
545 280
546 280
547 280
548 280
549 280
550 280
551 280
552 280
553 280
554 280
555 280
556 280
557 280
558 280
559 280
560 280
561 280
562 280
563 280
564 280
565 280
566 280
567 280
568 280
569 280
570 280
571 280
572 280
573 280
574 280
575 280
576 280
577 280
578 280
579 280
580 280
581 280
582 280
583 280
584 280
585 280
586 280
587 280
588 280
589 280
590 280
591 280
592 280
593 280
594 280
595 280
596 280
597 280
598 280
599 280
600 280
601 280
602 280
603 280
604 280
605 280
606 280
607 280
608 280
609 280
610 280
611 280
612 280
613 280
614 280
615 280
616 280
617 280
618 280
619 280
620 280
621 280
622 280
623 280
624 280
625 280
626 280
627 280
628 280
629 280
630 280
631 280
632 280
633 280
634 280
635 280
636 280
637 280
638 280
639 280
640 280
641 280
642 280
643 280
644 280
645 280
646 280
647 280
648 280
649 280
650 280
651 280
652 280
653 280
654 280
655 280
656 280
657 280
658 280
659 280
660 280
661 280
662 280
663 280
664 280
665 280
666 280
667 280
668 280
669 280
670 280
671 280
672 280
673 280
674 280
675 280
676 280
677 280
678 280
679 280
680 280
681 280
682 280
683 280
684 280
685 280
686 280
687 280
688 280
689 280
690 280
691 280
692 280
693 280
694 280
695 280
696 280
697 280
698 280
699 280
700 280
701 280
702 280
703 280
704 280
705 280
706 280
707 280
708 280
709 280
710 280
711 280
712 280
713 280
714 280
715 280
716 280
717 280
718 280
719 280
720 280
721 280
722 280
723 280
724 280
725 280
726 280
727 280
728 280
729 280
730 280
731 280
732 280
733 280
734 280
735 280
736 280
737 280
738 280
739 280
740 280
741 280
742 280
743 280
744 280
745 280
746 280
747 280
748 280
749 280
750 280
751 280
752 280
753 280
754 280
755 280
756 280
757 280
758 280
759 280
760 280
761 280
762 280
763 280
764 280
765 280
766 280
767 280
768 280
769 280
770 280
771 280
772 280
773 280
774 280
775 280
776 280
777 280
778 280
779 280
780 280
781 280
782 280
783 280
784 280
785 280
786 280
787 280
788 280
789 280
790 280
791 280
792 280
793 280
794 280
795 280
796 280
797 280
798 280
799 280
800 280
801 280
802 280
803 280
804 280
805 280
806 280
807 280
808 280
809 280
810 280
811 280
812 280
813 280
814 280
815 280
816 280
817 280
818 280
819 280
820 280
821 280
822 280
823 280
824 280
825 280
826 280
827 280
828 280
829 280
830 280
831 280
832 280
833 280
834 280
835 280
836 280
837 280
838 280
839 280
840 280
841 280
842 280
843 280
844 280
845 280
846 280
847 280
848 280
849 280
850 280
851 280
852 280
853 280
854 280
855 280
856 280
857 280
858 280
859 280
860 280
861 280
862 280
863 280
864 280
865 280
866 280
867 280
868 280
869 280
870 280
871 280
872 280
873 280
874 280
875 280
876 280
877 280
878 280
879 280
880 280
881 280
882 280
883 280
884 280
885 280
886 280
887 280
888 280
889 280
890 280
891 280
892 280
893 280
894 280
895 280
896 280
897 280
898 280
899 280
900 280
901 280
902 280
903 280
904 280
905 280
906 280
907 280
908 280
909 280
910 280
911 280
912 280
913 280
914 280
915 280
916 280
917 280
918 280
919 280
920 280
921 280
922 280
923 280
924 280
925 280
926 280
927 280
928 280
929 280
930 280
931 280
932 280
933 280
934 280
935 280
936 280
937 280
938 280
939 280
940 280
941 280
942 280
943 280
944 280
945 280
946 280
947 280
948 280
949 280
950 280
951 280
952 280
953 280
954 280
955 280
956 280
957 280
958 280
959 280
960 280
961 280
962 280
963 280
964 280
965 280
966 280
967 280
968 280
969 280
970 280
971 280
972 280
973 280
974 280
975 280
976 280
977 280
978 280
979 280
980 280
981 280
982 280
983 280
984 280
985 280
986 280
987 280
988 280
989 280
990 280
991 280
992 280
993 280
994 280
995 280
996 280
997 280
998 280
999 280
